/*********************************************
 * OPL 12.6.0.0 Data
 * Author: Adrian Rodriguez Bazaga, Pau Rodriguez Esmerats
 * Creation Date: 06/12/2017 at 23:03:09
 *********************************************/

nNurses=267;
maxConsec=2;
maxPresence=7;
maxHours=5;
minHours=1;
hours=24;
demand= [39 43 61 58 43 61 58 47 45 23 5 10 6 12 9 8 6 8 4 2 45 84 42 61  ];
